mixintcount/benchmarks/random_v2l/4_4_3981.in
16 6
#	x1	x2	x3	x4;		0 = Real; 1 = Integer
	1	1	1	1
1	-9	-9	0	5	1595
1	1	3	-3	2	260
1	1	10	6	-3	3480
1	-9	-9	6	5	3959
1	6	5	-1	0	1994
1	-2	-2	-2	10	-1754
1	-6	9	0	2	2600
1	-3	-9	-6	4	3903
1	1	0	0	0	3981
1	-1	0	0	0	3981
1	0	1	0	0	3981
1	0	-1	0	0	3981
1	0	0	1	0	3981
1	0	0	-1	0	3981
1	0	0	0	1	3981
1	0	0	0	-1	3981
